c
c start with comments
c
p cnf 22 14
-7 8 0
5 13 -17 0
-3 5 -12 0
-15 5 -8 0
-2 -6 0
3 -9 -23 3 0
10 -21 0
6 -9 23 -11 0
23 -14 6 11 0
7 -14 5 0
-23 19 20 -1 -17 0
21 2 0
1 12 20 4 -3 0
-12 24 -9 22 0